p cnf 120 142
-7  4  -5  0
-13  -10  11  0
16  -13  14  0
25  22  -23  0
34  -31  32  0
-40  -37  -38  0
-43  40  -41  0
55  52  -53  0
61  58  -59  0
64  61  -62  0
70  -67  68  0
-79  -76  -77  0
-88  -85  86  0
-91  88  89  0
-97  -94  95  0
103  -100  -101  0
-106  103  104  0
-5  -1  2  0
5  -2  3  0
-8  -4  5  0
11  -10  -7  0
14  13  -10  0
-14  -11  12  0
-17  -16  14  0
-17  16  13  0
20  19  17  0
-20  -19  -16  0
-20  16  17  0
20  -17  18  0
-23  22  20  0
-23  -20  -21  0
-32  31  -29  0
32  -31  -28  0
-35  34  32  0
35  -34  -31  0
-35  -31  32  0
35  -32  33  0
-38  37  -35  0
38  37  -34  0
-38  -34  35  0
38  35  -36  0
-41  40  38  0
-41  40  37  0
41  -37  38  0
44  -41  42  0
47  46  -44  0
47  -43  44  0
47  -44  -45  0
50  -49  -46  0
-50  -46  47  0
53  -52  -50  0
-53  -52  -49  0
53  -49  50  0
-56  55  -53  0
-56  55  -52  0
-56  -53  -54  0
59  58  -56  0
59  55  -56  0
-62  -59  -60  0
-65  -64  -62  0
65  62  63  0
68  -67  65  0
71  70  -68  0
-71  -70  -67  0
71  -67  -68  0
71  68  -69  0
-77  -76  -73  0
77  -74  -75  0
80  76  77  0
-86  85  83  0
86  85  82  0
-89  88  -85  0
89  -85  86  0
95  91  -92  0
95  92  -93  0
98  97  95  0
-101  -100  98  0
-104  -103  -101  0
104  -101  -102  0
-107  -104  -105  0
110  -107  108  0
-113  -112  -109  0
-113  110  111  0
116  -115  112  0
-116  -112  113  0
-119  -118  -116  0
119  -116  -117  0
6  5  -2  0
-6  -2  -3  0
-9  8  6  0
-9  -5  -6  0
-12  11  -9  0
-15  -14  -11  0
15  11  12  0
-18  17  15  0
-18  14  15  0
-21  -20  -18  0
-21  -20  17  0
-24  -20  -21  0
27  26  -24  0
-27  -23  -24  0
-30  -29  -27  0
33  -32  -29  0
-36  -35  33  0
39  -38  36  0
39  38  35  0
42  -41  39  0
48  47  -44  0
54  -53  -50  0
-54  -50  -51  0
-60  59  -57  0
60  56  57  0
-66  -65  -63  0
-69  -68  -66  0
69  68  -65  0
69  65  -66  0
72  71  -69  0
72  68  -69  0
75  -74  72  0
-75  -74  -71  0
-75  71  -72  0
-78  -74  75  0
-81  80  -78  0
81  -80  -77  0
-81  -77  -78  0
-87  -86  -84  0
90  89  86  0
90  -86  -87  0
-96  -95  -93  0
-96  -95  92  0
96  -92  93  0
-99  98  -96  0
99  -98  -95  0
99  -95  96  0
-105  -104  102  0
-105  101  -102  0
111  -110  -108  0
114  -110  111  0
-117  116  -114  0
-117  116  -113  0
117  -113  114  0
120  116  117  0
